SCIP version 5.0.0 [precision: 8 byte] [memory: block] [mode: optimized] [LP solver: NONE] [GitHash: 3bbd232]
Copyright (C) 2002-2017 Konrad-Zuse-Zentrum fuer Informationstechnik Berlin (ZIB)

External codes: 
  Readline EditLine w  GNU library for command line editing (gnu.org/s/readline)
  CppAD 20160000.1     Algorithmic Differentiation of C++ algorithms developed by B. Bell (www.coin-or.org/CppAD)
  ZLIB 1.2.5           General purpose compression library by J. Gailly and M. Adler (zlib.net)
  GMP 6.1.2            GNU Multiple Precision Arithmetic Library developed by T. Granlund (gmplib.org)

user parameter file <scip.set> not found - using default parameters

read problem <../../Split_data/output/biodeg/5/1_sample_biodeg.logreg>
============

File name	:	../../Split_data/output/biodeg/5/1_sample_biodeg.logreg
Problem name 	:	1_sample_biodeg
Number of data	:	844
Number of var	:	41
The given data has linear dependence
1 sets of column vector are linearly dependent:
{ 19}, 

[dim=1] time: 0.037498
[dim=2] time: 0.074208
[dim=3] time: 0.111379
[dim=4] time: 0.153432
[dim=5] time: 0.183082
[dim=6] time: 0.212405
[dim=7] time: 0.240746
[dim=8] time: 0.270192
[dim=9] time: 0.313644
[dim=10] time: 0.343522
[dim=11] time: 0.369404
[dim=12] time: 0.398336
[dim=13] time: 0.42161
[dim=14] time: 0.445211
[dim=15] time: 0.468149
[dim=16] time: 0.491091
[dim=17] time: 0.512406
[dim=18] time: 0.534672
[dim=19] time: 0.550227
[dim=20] time: 0.565801
[dim=21] Time of forward = 0.5804sec.
AIC: 541.62
k: 20

[dim=40] time: 0.138133
[dim=39] time: 0.191234
[dim=38] time: 0.235062
[dim=37] time: 0.281525
[dim=36] time: 0.32312
[dim=35] time: 0.370226
[dim=34] time: 0.415447
[dim=33] time: 0.46225
[dim=32] time: 0.535895
[dim=31] time: 0.58336
[dim=30] time: 0.619467
[dim=29] time: 0.658134
[dim=28] time: 0.689959
[dim=27] time: 0.719045
[dim=26] time: 0.751288
[dim=25] time: 0.781299
[dim=24] time: 0.821609
[dim=23] time: 0.847641
[dim=22] Time of backward = 0.870135sec.
AIC: 540.928
k: 23
